S = 4;
start = [|0,0,0,4,0,15,0,0,0,0,12,9,0,0,0,13|
0,7,0,0,1,10,2,6,0,0,0,0,4,11,0,0|
0,10,0,0,0,0,0,4,0,0,0,0,12,0,0,9|
5,15,0,13,11,0,0,12,0,14,0,0,0,0,0,0|
0,16,0,2,0,14,1,0,0,0,0,5,0,0,3,0|
0,0,0,0,0,2,5,11,0,0,0,6,0,7,0,15|
0,0,4,11,12,0,0,0,7,0,0,0,0,16,9,0|
0,14,0,0,0,0,0,15,0,0,0,1,0,8,0,0|
4,0,0,8,5,0,0,0,0,0,15,0,0,0,0,0|
0,13,5,10,0,0,14,0,16,0,0,11,0,15,0,3|
0,2,14,7,0,11,0,0,0,0,0,4,0,12,0,0|
0,0,0,6,0,0,0,0,0,0,0,0,0,0,0,11|
0,0,2,0,0,0,0,0,3,1,0,7,15,0,0,0|
0,0,0,15,0,0,0,1,9,0,0,0,0,14,0,5|
0,4,11,0,0,0,0,0,0,0,0,0,1,0,6,0|
14,3,0,1,0,0,15,0,5,0,4,0,7,9,0,0|];